NAME : tsp_487_sol.txt
COMMENT : OR-Tools Guided Local Search
TYPE : TOUR
DIMENSION : 50
COST : 5679
STATUS : ROUTING_SUCCESS
GAP : 0.00% (Reference Solution)
TOUR_SECTION
1
26
23
36
45
28
10
48
15
30
43
14
5
32
8
16
33
44
50
2
27
6
20
42
40
47
31
34
12
38
25
7
41
9
37
39
24
19
11
13
35
17
21
46
29
49
18
4
3
22
-1
